n_res = 4;
rcap = [26, 21, 118, 111];
rtype = [1, 1, 2, 2];
n_tasks = 20;
modes = [ {1, 2, 3}, {4, 5, 6}, {7, 8, 9}, {10, 11, 12}, {13, 14, 15}, {16, 17, 18}, {19, 20, 21}, {22, 23, 24}, {25, 26, 27}, {28, 29, 30}, {31, 32, 33}, {34, 35, 36}, {37, 38, 39}, {40, 41, 42}, {43, 44, 45}, {46, 47, 48}, {49, 50, 51}, {52, 53, 54}, {55, 56, 57}, {58, 59, 60} ];
succ = [ {8, 11, 15}, {4, 12, 17}, {6, 12, 18}, {5, 8, 11}, {7, 13, 18}, {10, 13}, {9, 19}, {20}, {10}, {14, 15}, {14}, {16, 19}, {14, 15}, {16}, {16}, {20}, {18, 19, 20}, {}, {}, {} ];
n_opt = 60;
dur = [1, 5, 5, 2, 3, 5, 3, 4, 6, 4, 4, 4, 1, 8, 9, 2, 10, 10, 1, 1, 5, 4, 4, 7, 2, 4, 10, 2, 7, 10, 1, 4, 8, 3, 6, 7, 5, 8, 10, 2, 2, 4, 2, 3, 4, 3, 7, 10, 3, 4, 6, 2, 3, 10, 3, 4, 4, 4, 5, 10];
rreq = [|  6,  1,  4,  7,  7,  2,  3,  3,  2,  4,  3,  4,  9,  9,  9,  4,  3,  3,  8,  8,  6,  4,  5,  4,  4,  3,  1,  8,  6,  2,  6,  6,  4,  9,  9,  9,  6,  6,  6,  9, 10,  8,  5,  5,  3,  3,  3,  2,  5,  4,  1,  8,  5,  4,  8,  5,  6, 10,  8,  7
        |  4,  2,  1,  8,  8,  7,  6,  5,  4,  7,  5,  5,  8,  7,  7,  4,  3,  4,  6,  7,  4,  5,  4,  4,  6,  5,  3,  8,  8,  6,  8,  8,  7,  8,  4,  2,  3,  3,  3, 10,  7,  5,  8,  6,  5,  8,  6,  4,  6,  6,  4,  6,  5,  5,  4,  4,  4,  5,  5,  5
        |  8,  8,  7,  4,  4,  3,  7,  6,  4,  3, 10,  6,  6,  6,  3,  4,  4,  3,  9,  9,  4,  8,  7,  5,  4,  4,  4,  9,  7,  6, 10, 10,  9,  9,  8,  7, 10,  8,  7,  6,  6,  6,  5,  2,  1,  3,  3,  2,  4,  3,  2,  6,  5,  5,  7,  1,  3,  1,  1,  1
        |  9,  9,  9,  5,  3,  1,  6,  6,  6,  1,  4,  1,  9,  8,  8,  4,  3,  3,  7,  6,  5,  6,  7,  4,  6,  4,  3,  5,  3,  3,  9,  7,  6,  9,  8,  8,  3,  3,  1,  2,  2,  2,  8,  6,  4,  4,  4,  3,  6,  5,  4,  4,  3,  3,  5,  3,  1,  8,  8,  7 |];
